************************************************************************
file with basedata            : n/a
initial value random generator: n/a
************************************************************************
projects                      :  1
jobs (incl. supersource/sink ):  122
horizon                       :  605
RESOURCES
  - renewable                 :  4   R
  - nonrenewable              :  0   N
  - doubly constrained        :  0   D
************************************************************************
PROJECT INFORMATION:
pronr.  #jobs rel.date duedate tardcost  MPM-Time
    1    120      0       77      103       77
************************************************************************
PRECEDENCE RELATIONS:
jobnr.    #modes  #successors   successors
   1        1          3           2   3   4
   2        1          3           5   6  13
   3        1          3          11  48  49
   4        1          3           7   8  41
   5        1          3          16  29  39
   6        1          3          12  17  20
   7        1          3           9  23  25
   8        1          2          15  52
   9        1          3          10  26  42
  10        1          2          21  72
  11        1          3          14  18  33
  12        1          3          19  40  88
  13        1          3          43  66  81
  14        1          3          22  27  32
  15        1          1         100
  16        1          2          44 116
  17        1          1          33
  18        1          3          34  85  87
  19        1          3          57  71  74
  20        1          2          30  96
  21        1          3          35 103 111
  22        1          3          24  64  87
  23        1          3          78  82  84
  24        1          3          28  31  63
  25        1          2          38  47
  26        1          1          81
  27        1          1          59
  28        1          1          77
  29        1          2          83 115
  30        1          3          45  75  90
  31        1          1          36
  32        1          1         106
  33        1          2          37  65
  34        1          1          69
  35        1          1          53
  36        1          3          54  77  95
  37        1          1          93
  38        1          2          67 110
  39        1          2          45 117
  40        1          1          51
  41        1          2          50  61
  42        1          2          46  76
  43        1          1         103
  44        1          1          99
  45        1          1          56
  46        1          1          88
  47        1          2          97 104
  48        1          1          56
  49        1          1          60
  50        1          1          62
  51        1          1          82
  52        1          2          55 121
  53        1          1          58
  54        1          1          90
  55        1          1          63
  56        1          3          73  77 107
  57        1          1          80
  58        1          1         108
  59        1          1          68
  60        1          1          86
  61        1          1         111
  62        1          1          79
  63        1          1          70
  64        1          1          95
  65        1          1         106
  66        1          2          94 101
  67        1          1         113
  68        1          1          78
  69        1          2          86  94
  70        1          1         120
  71        1          1          89
  72        1          1         119
  73        1          1         105
  74        1          1         119
  75        1          1         100
  76        1          2          79  97
  77        1          3         100 108 113
  78        1          1          92
  79        1          1          87
  80        1          1          98
  81        1          1         104
  82        1          1          91
  83        1          1          89
  84        1          1         102
  85        1          1         102
  86        1          2         101 114
  87        1          1         108
  88        1          1          98
  89        1          1         101
  90        1          2         105 112
  91        1          1          94
  92        1          1         118
  93        1          1          96
  94        1          1          98
  95        1          1         112
  96        1          1         109
  97        1          1         102
  98        1          1         115
  99        1          1         115
 100        1          1         112
 101        1          1         113
 102        1          1         103
 103        1          1         109
 104        1          1         105
 105        1          1         120
 106        1          1         118
 107        1          1         111
 108        1          1         118
 109        1          1         114
 110        1          1         117
 111        1          1         116
 112        1          1         114
 113        1          1         116
 114        1          1         121
 115        1          1         117
 116        1          1         121
 117        1          1         119
 118        1          1         120
 119        1          1         122
 120        1          1         122
 121        1          1         122
 122        1          0        
************************************************************************
REQUESTS/DURATIONS:
jobnr. mode duration  R 1  R 2  R 3  R 4
------------------------------------------------------------------------
  1      1     0    
  2      1     7       6   3   6   6   6   6   6
                       6   3   6   6   6   6   6
                       8   4   8   8   8   8   8
                       9   5   9   9   9   9   9
  3      1     4       6   3   6   6
                       0   0   0   0
                       3   2   3   3
                       0   0   0   0
  4      1     3       4   4   4
                       8   8   8
                       2   2   2
                       1   1   1
  5      1     5       4   8   8   8   8
                       5   9   9   9   9
                       3   6   6   6   6
                       5   9   9   9   9
  6      1     6       4   8   8   4   4   8
                       2   3   3   2   2   3
                       1   2   2   1   1   2
                       4   7   7   4   4   7
  7      1     5       4   4   4   4   2
                       1   1   1   1   1
                       5   5   5   5   3
                       7   7   7   7   4
  8      1     8       1   1   1   1   1   1   1   1
                       3   3   3   3   3   3   2   3
                       4   4   4   4   4   4   2   4
                       0   0   0   0   0   0   0   0
  9      1     6       9   9   9   9   5   9
                       7   7   7   7   4   7
                       0   0   0   0   0   0
                       1   1   1   1   1   1
 10      1     1       0
                       6
                       2
                       8
 11      1     5       2   2   2   1   2
                       8   8   8   4   8
                       3   3   3   2   3
                       5   5   5   3   5
 12      1     4      10  10  10  10
                      10  10  10  10
                       3   3   3   3
                       3   3   3   3
 13      1     2       1   1
                       6   6
                       0   0
                       4   4
 14      1     4       3   3   3   3
                       4   4   4   4
                       3   3   3   3
                       0   0   0   0
 15      1     5       6   3   3   6   6
                       1   1   1   1   1
                       5   3   3   5   5
                       2   1   1   2   2
 16      1     3       0   0   0
                       4   4   4
                       1   1   1
                      10  10  10
 17      1     8       7   7   7   7   7   7   7   7
                       4   4   4   4   4   4   4   4
                       0   0   0   0   0   0   0   0
                       5   5   5   5   5   5   5   5
 18      1     1       4
                       1
                       5
                       2
 19      1     7       6   6   6   6   3   3   6
                       7   7   7   7   4   4   7
                       9   9   9   9   5   5   9
                       0   0   0   0   0   0   0
 20      1    10       6   6   6   6   3   3   3   3   6   3
                       3   3   3   3   2   2   2   2   3   2
                       6   6   6   6   3   3   3   3   6   3
                       3   3   3   3   2   2   2   2   3   2
 21      1    10       7   7   4   7   4   4   4   7   7   7
                       0   0   0   0   0   0   0   0   0   0
                       1   1   1   1   1   1   1   1   1   1
                      10  10   5  10   5   5   5  10  10  10
 22      1     4       0   0   0   0
                       4   8   4   8
                       0   0   0   0
                       2   4   2   4
 23      1     7       0   0   0   0   0   0   0
                       0   0   0   0   0   0   0
                       4   7   7   7   4   7   7
                       5   9   9   9   5   9   9
 24      1     7       4   7   7   7   7   7   7
                       4   8   8   8   8   8   8
                       0   0   0   0   0   0   0
                       5  10  10  10  10  10  10
 25      1     1       9
                       3
                       6
                       0
 26      1     5       8   8   8   4   8
                       0   0   0   0   0
                       0   0   0   0   0
                       7   7   7   4   7
 27      1     1       7
                      10
                       0
                       6
 28      1    10       1   1   1   1   1   1   1   1   1   1
                       0   0   0   0   0   0   0   0   0   0
                       1   1   1   1   1   1   1   1   1   1
                       0   0   0   0   0   0   0   0   0   0
 29      1     1       0
                       3
                       5
                       4
 30      1     9       0   0   0   0   0   0   0   0   0
                       3   3   3   2   3   2   2   2   3
                       3   3   3   2   3   2   2   2   3
                       5   5   5   3   5   3   3   3   5
 31      1     1       0
                       6
                       9
                       0
 32      1     2       3   3
                       3   3
                       0   0
                       1   1
 33      1     1       2
                       0
                       1
                       0
 34      1     9       8   8   8   8   8   4   4   8   8
                      10  10  10  10  10   5   5  10  10
                       0   0   0   0   0   0   0   0   0
                       2   2   2   2   2   1   1   2   2
 35      1     1       0
                       0
                       0
                       4
 36      1     6       2   4   4   4   4   4
                       1   1   1   1   1   1
                       4   7   7   7   7   7
                       4   7   7   7   7   7
 37      1     9       3   3   3   2   3   3   2   3   3
                       6   6   6   3   6   6   3   6   6
                       0   0   0   0   0   0   0   0   0
                       4   4   4   2   4   4   2   4   4
 38      1     9       0   0   0   0   0   0   0   0   0
                       9   9   9   5   9   9   9   9   9
                       1   1   1   1   1   1   1   1   1
                       9   9   9   5   9   9   9   9   9
 39      1     2       6   6
                       8   8
                       0   0
                       9   9
 40      1     2       7   7
                       8   8
                       5   5
                      10  10
 41      1    10       4   4   4   2   2   4   4   4   2   4
                       9   9   9   5   5   9   9   9   5   9
                       9   9   9   5   5   9   9   9   5   9
                       2   2   2   1   1   2   2   2   1   2
 42      1     1       0
                       2
                       1
                       7
 43      1     2       3   3
                       9   9
                       0   0
                       0   0
 44      1     7       3   3   3   3   3   2   3
                       6   6   6   6   6   3   6
                       0   0   0   0   0   0   0
                       9   9   9   9   9   5   9
 45      1     2       0   0
                       9   9
                       0   0
                       4   4
 46      1     3       9   9   9
                       0   0   0
                       0   0   0
                       2   2   2
 47      1     9       1   2   2   1   1   1   2   2   2
                       0   0   0   0   0   0   0   0   0
                       2   4   4   2   2   2   4   4   4
                       1   1   1   1   1   1   1   1   1
 48      1     8       0   0   0   0   0   0   0   0
                       7   4   7   7   7   7   4   4
                       3   2   3   3   3   3   2   2
                       4   2   4   4   4   4   2   2
 49      1     6       5   5   3   5   5   3
                       6   6   3   6   6   3
                       0   0   0   0   0   0
                       2   2   1   2   2   1
 50      1     3       8   8   8
                      10  10  10
                       1   1   1
                       7   7   7
 51      1     8       7   7   4   7   7   7   7   7
                       7   7   4   7   7   7   7   7
                       5   5   3   5   5   5   5   5
                       9   9   5   9   9   9   9   9
 52      1     9      10  10  10  10  10  10  10   5   5
                       7   7   7   7   7   7   7   4   4
                       5   5   5   5   5   5   5   3   3
                       2   2   2   2   2   2   2   1   1
 53      1     6       4   4   4   4   2   4
                       8   8   8   8   4   8
                       0   0   0   0   0   0
                       0   0   0   0   0   0
 54      1     3       1   1   1
                       1   1   1
                       5   5   3
                       2   2   1
 55      1     2       4   7
                       0   0
                       1   2
                       1   1
 56      1     8       3   6   6   6   6   3   6   6
                       0   0   0   0   0   0   0   0
                       2   4   4   4   4   2   4   4
                       5   9   9   9   9   5   9   9
 57      1     4       5   9   9   5
                       0   0   0   0
                       0   0   0   0
                       5   9   9   5
 58      1     8       1   1   1   1   1   1   1   1
                       0   0   0   0   0   0   0   0
                       8   8   8   4   4   8   8   4
                       0   0   0   0   0   0   0   0
 59      1    10       4   4   4   4   4   4   4   4   2   4
                       9   9   9   9   9   9   9   9   5   9
                       2   2   2   2   2   2   2   2   1   2
                       5   5   5   5   5   5   5   5   3   5
 60      1     5       1   1   1   1   1
                       4   4   4   2   4
                       5   5   5   3   5
                       1   1   1   1   1
 61      1     2       3   3
                       6   6
                       7   7
                       0   0
 62      1     1       3
                       5
                       5
                       0
 63      1     1       4
                       0
                       7
                       0
 64      1     9       7   7   7   7   7   4   7   7   4
                       0   0   0   0   0   0   0   0   0
                       0   0   0   0   0   0   0   0   0
                       1   1   1   1   1   1   1   1   1
 65      1     4       1   1   1   1
                       3   6   6   6
                       1   2   2   2
                       3   6   6   6
 66      1     5       9   9   9   9   9
                       0   0   0   0   0
                      10  10  10  10  10
                       9   9   9   9   9
 67      1     6       0   0   0   0   0   0
                       3   3   3   3   3   3
                       3   3   3   3   3   3
                       8   8   8   8   8   8
 68      1     2      10  10
                       2   2
                       0   0
                       7   7
 69      1     4       1   1   1   1
                       3   6   6   6
                       0   0   0   0
                       4   8   8   8
 70      1     9       6   6   6   6   3   3   6   6   6
                       4   4   4   4   2   2   4   4   4
                       5   5   5   5   3   3   5   5   5
                       0   0   0   0   0   0   0   0   0
 71      1     3       7   7   4
                       0   0   0
                       4   4   2
                       4   4   2
 72      1     4       8   8   8   8
                       0   0   0   0
                       0   0   0   0
                       3   3   3   3
 73      1     1       4
                       0
                       2
                       9
 74      1     7       1   1   1   1   1   1   1
                       0   0   0   0   0   0   0
                       0   0   0   0   0   0   0
                       0   0   0   0   0   0   0
 75      1     1       2
                       2
                       2
                       3
 76      1     6       0   0   0   0   0   0
                       0   0   0   0   0   0
                       1   1   1   1   1   1
                       1   1   1   1   1   1
 77      1    10       8   8   8   4   8   4   8   8   8   8
                       1   1   1   1   1   1   1   1   1   1
                       6   6   6   3   6   3   6   6   6   6
                       2   2   2   1   2   1   2   2   2   2
 78      1     2       6   6
                       9   9
                       0   0
                       9   9
 79      1     1       0
                       6
                       0
                       5
 80      1     2       3   3
                       9   9
                       2   2
                       6   6
 81      1     8      10  10  10  10  10  10  10  10
                       5   5   5   5   5   5   5   5
                       8   8   8   8   8   8   8   8
                       3   3   3   3   3   3   3   3
 82      1     3       3   2   3
                       2   1   2
                       0   0   0
                       2   1   2
 83      1     6       6   6   6   6   6   6
                       4   4   4   4   4   4
                       0   0   0   0   0   0
                       1   1   1   1   1   1
 84      1     1       1
                       7
                       0
                       8
 85      1     4       0   0   0   0
                       9   9   5   9
                       4   4   2   4
                       9   9   5   9
 86      1     4       4   8   8   8
                       0   0   0   0
                       0   0   0   0
                       5   9   9   9
 87      1     4       4   4   8   4
                       4   4   8   4
                       0   0   0   0
                       0   0   0   0
 88      1     4       9   5   5   9
                       1   1   1   1
                       1   1   1   1
                       4   2   2   4
 89      1     8       6   6   3   6   6   6   6   6
                       7   7   4   7   7   7   7   7
                       0   0   0   0   0   0   0   0
                       4   4   2   4   4   4   4   4
 90      1     8       3   5   5   5   5   5   5   3
                       4   8   8   8   8   8   8   4
                       3   5   5   5   5   5   5   3
                       1   1   1   1   1   1   1   1
 91      1     8       4   4   2   4   2   2   4   4
                       7   7   4   7   4   4   7   7
                       6   6   3   6   3   3   6   6
                       0   0   0   0   0   0   0   0
 92      1     9       4   4   4   4   4   4   4   2   4
                       0   0   0   0   0   0   0   0   0
                       0   0   0   0   0   0   0   0   0
                       0   0   0   0   0   0   0   0   0
 93      1     1       0
                       2
                       9
                       9
 94      1    10       1   1   1   1   1   1   1   1   1   1
                       4   4   2   2   2   4   4   4   4   2
                       1   1   1   1   1   1   1   1   1   1
                       0   0   0   0   0   0   0   0   0   0
 95      1     9       4   4   4   4   4   2   4   4   4
                       7   7   7   7   7   4   7   7   7
                       0   0   0   0   0   0   0   0   0
                      10  10  10  10  10   5  10  10  10
 96      1     6       0   0   0   0   0   0
                       5   5   5   5   5   5
                       4   4   4   4   4   4
                       5   5   5   5   5   5
 97      1     4       5  10  10  10
                       2   4   4   4
                       0   0   0   0
                       3   6   6   6
 98      1     2       2   2
                       0   0
                       7   7
                       0   0
 99      1     4       8   8   8   8
                       7   7   7   7
                       0   0   0   0
                       4   4   4   4
100      1     8       8   8   8   8   8   8   8   8
                       4   4   4   4   4   4   4   4
                       6   6   6   6   6   6   6   6
                       0   0   0   0   0   0   0   0
101      1     4       4   4   4   4
                      10  10  10  10
                       9   9   9   9
                       6   6   6   6
102      1     1       6
                       3
                       6
                       9
103      1    10       0   0   0   0   0   0   0   0   0   0
                       8   8   8   8   8   8   8   8   8   8
                       6   6   6   6   6   6   6   6   6   6
                       3   3   3   3   3   3   3   3   3   3
104      1     3       0   0   0
                       2   1   2
                       0   0   0
                       5   3   5
105      1     2       0   0
                       5   5
                       0   0
                       5   5
106      1     1       1
                       9
                      10
                       2
107      1     7       9   5   9   9   9   9   9
                      10   5  10  10  10  10  10
                       7   4   7   7   7   7   7
                       5   3   5   5   5   5   5
108      1     5       6   6   6   3   6
                       2   2   2   1   2
                       9   9   9   5   9
                       5   5   5   3   5
109      1     6       0   0   0   0   0   0
                       4   7   7   7   7   7
                       1   2   2   2   2   2
                       5   9   9   9   9   9
110      1    10       0   0   0   0   0   0   0   0   0   0
                       0   0   0   0   0   0   0   0   0   0
                       2   2   4   4   2   4   4   4   4   4
                       5   5  10  10   5  10  10  10  10  10
111      1     5       3   6   6   6   6
                       5   9   9   9   9
                       0   0   0   0   0
                       5   9   9   9   9
112      1     5       2   2   2   4   4
                       2   2   2   3   3
                       0   0   0   0   0
                       4   4   4   7   7
113      1     1       0
                      10
                       7
                       1
114      1     6       1   1   1   1   1   1
                       0   0   0   0   0   0
                       5   5   9   5   9   9
                       1   1   1   1   1   1
115      1     6       2   4   4   4   4   4
                       2   4   4   4   4   4
                       2   4   4   4   4   4
                       5   9   9   9   9   9
116      1     1       3
                       5
                       2
                       1
117      1     3       0   0   0
                       2   2   2
                       7   7   7
                       2   2   2
118      1    10       7   7   7   7   7   7   7   7   7   7
                       0   0   0   0   0   0   0   0   0   0
                       0   0   0   0   0   0   0   0   0   0
                       0   0   0   0   0   0   0   0   0   0
119      1    10       0   0   0   0   0   0   0   0   0   0
                       5   5   5   5   3   5   3   5   5   5
                       1   1   1   1   1   1   1   1   1   1
                       4   4   4   4   2   4   2   4   4   4
120      1     7       8   8   4   8   8   8   8
                       0   0   0   0   0   0   0
                       5   5   3   5   5   5   5
                       9   9   5   9   9   9   9
121      1     6       0   0   0   0   0   0
                       2   2   2   3   3   3
                       2   2   2   3   3   3
                       0   0   0   0   0   0
122      1     0    
************************************************************************
RESOURCEAVAILABILITIES:
  R 1  R 2  R 3  R 4

  29  29  29  29  15  29  29  29  29  29  29  29  15  29  29  29  29  29  29  29  29  29  29  29  29  29  29  29  29  29  29  15  15  29  29  29  29  29  29  29  15  29  15  15  15  29  29  29  15  29  29  29  29  29  29  15  29  29  29  15  29  29  29  29  29  29  29  29  29  29  15  29  29  15  29  29  29  29  29  29  29  29  29  15  29  29  29  29  29  15  29  29  29  15  29  29  29  29  15  29  29  29  15  29  29  29  15  29  29  15  29  29  29  15  29  15  29  29  15  29  15  15  29  29  29  15  15  29  29  29  29  29  15  29  15  29  29  29  29  15  29  29  29  29  15  29  29  29  29  15  15  29  29  29  15  29  29  29  29  15  29  29  29  29  29  29  15  29  29  15  15  29  29  29  29  29  29  29  29  29  29  15  15  29  29  29  15  29  15  29  29  15  29  29  29  29  15  29  29  29  15  29  29  15  29  29  29  15  29  29  29  29  15  29  29  29  29  29  29  29  29  29  29  15  15  29  29  29  15  29  29  29  29  15  15  29  29  29  29  29  15  29  15  15  29  15  29  15  29  29  15  15  29  29  15  15  15  29  15  29  29  29  29  29  15  29  29  29  29  29  29  29  15  29  29  29  15  29  29  29  29  15  29  29  29  29  29  29  29  15  29  29  29  29  29  29  29  29  15  15  15  29  29  29  29  29  15  29  29  29  29  29  15  15  15  15  29  29  29  29  29  29  29  15  29  29  29  29  29  29  15  29  29  29  15  29  29  29  29  29  29  29  29  29  29  15  29  15  29  29  15  15  29  29  15  29  29  29  15  29  29  29  29  29  15  15  29  29  29  29  29  29  15  29  29  29  29  15  29  29  29  15  29  29  29  29  29  29  29  29  29  29  29  29  15  29  29  29  29  29  29  29  29  29  15  15  15  15  29  29  29  29  29  15  29  15  29  29  29  29  15  29  29  29  29  29  29  15  29  29  15  29  29  29  29  15  29  15  15  15  29  29  15  29  15  29  29  29  29  29  29  29  29  29  15  29  29  29  29  29  29  29  29  29  29  15  15  29  29  29  29  29  29  29  29  29  29  29  29  29  29  29  29  29  29  29  29  29  29  29  29  29  29  29  29  29  29  29  29  29  29  15  29  29  29  29  15  29  29  15  15  15  29  29  29  29  29  29  15  29  29  29  29  29  29  29  29  29  15  29  15  29  15  29  29  29  15  29  29  29  29  29  15  29  29  29  29  29  29  29  15  29  29  29  29  29  29  29  29  29  29  29  29  29  15  29  29  29  15  29  15  29  29  29  29  29  15  15  29  15  29  29  29  29  29  29  29  29  29  29  29  29  29  29  29  29  29  29  29  29  29  15  29  29  29

  31  31  31  31  16  31  31  31  31  31  31  31  16  31  31  31  31  31  31  31  31  31  31  31  31  31  31  31  31  31  31  16  16  31  31  31  31  31  31  31  16  31  16  16  16  31  31  31  16  31  31  31  31  31  31  16  31  31  31  16  31  31  31  31  31  31  31  31  31  31  16  31  31  16  31  31  31  31  31  31  31  31  31  16  31  31  31  31  31  16  31  31  31  16  31  31  31  31  16  31  31  31  16  31  31  31  16  31  31  16  31  31  31  16  31  16  31  31  16  31  16  16  31  31  31  16  16  31  31  31  31  31  16  31  16  31  31  31  31  16  31  31  31  31  16  31  31  31  31  16  16  31  31  31  16  31  31  31  31  16  31  31  31  31  31  31  16  31  31  16  16  31  31  31  31  31  31  31  31  31  31  16  16  31  31  31  16  31  16  31  31  16  31  31  31  31  16  31  31  31  16  31  31  16  31  31  31  16  31  31  31  31  16  31  31  31  31  31  31  31  31  31  31  16  16  31  31  31  16  31  31  31  31  16  16  31  31  31  31  31  16  31  16  16  31  16  31  16  31  31  16  16  31  31  16  16  16  31  16  31  31  31  31  31  16  31  31  31  31  31  31  31  16  31  31  31  16  31  31  31  31  16  31  31  31  31  31  31  31  16  31  31  31  31  31  31  31  31  16  16  16  31  31  31  31  31  16  31  31  31  31  31  16  16  16  16  31  31  31  31  31  31  31  16  31  31  31  31  31  31  16  31  31  31  16  31  31  31  31  31  31  31  31  31  31  16  31  16  31  31  16  16  31  31  16  31  31  31  16  31  31  31  31  31  16  16  31  31  31  31  31  31  16  31  31  31  31  16  31  31  31  16  31  31  31  31  31  31  31  31  31  31  31  31  16  31  31  31  31  31  31  31  31  31  16  16  16  16  31  31  31  31  31  16  31  16  31  31  31  31  16  31  31  31  31  31  31  16  31  31  16  31  31  31  31  16  31  16  16  16  31  31  16  31  16  31  31  31  31  31  31  31  31  31  16  31  31  31  31  31  31  31  31  31  31  16  16  31  31  31  31  31  31  31  31  31  31  31  31  31  31  31  31  31  31  31  31  31  31  31  31  31  31  31  31  31  31  31  31  31  31  16  31  31  31  31  16  31  31  16  16  16  31  31  31  31  31  31  16  31  31  31  31  31  31  31  31  31  16  31  16  31  16  31  31  31  16  31  31  31  31  31  16  31  31  31  31  31  31  31  16  31  31  31  31  31  31  31  31  31  31  31  31  31  16  31  31  31  16  31  16  31  31  31  31  31  16  16  31  16  31  31  31  31  31  31  31  31  31  31  31  31  31  31  31  31  31  31  31  31  31  16  31  31  31

  21  21  21  21  11  21  21  21  21  21  21  21  11  21  21  21  21  21  21  21  21  21  21  21  21  21  21  21  21  21  21  11  11  21  21  21  21  21  21  21  11  21  11  11  11  21  21  21  11  21  21  21  21  21  21  11  21  21  21  11  21  21  21  21  21  21  21  21  21  21  11  21  21  11  21  21  21  21  21  21  21  21  21  11  21  21  21  21  21  11  21  21  21  11  21  21  21  21  11  21  21  21  11  21  21  21  11  21  21  11  21  21  21  11  21  11  21  21  11  21  11  11  21  21  21  11  11  21  21  21  21  21  11  21  11  21  21  21  21  11  21  21  21  21  11  21  21  21  21  11  11  21  21  21  11  21  21  21  21  11  21  21  21  21  21  21  11  21  21  11  11  21  21  21  21  21  21  21  21  21  21  11  11  21  21  21  11  21  11  21  21  11  21  21  21  21  11  21  21  21  11  21  21  11  21  21  21  11  21  21  21  21  11  21  21  21  21  21  21  21  21  21  21  11  11  21  21  21  11  21  21  21  21  11  11  21  21  21  21  21  11  21  11  11  21  11  21  11  21  21  11  11  21  21  11  11  11  21  11  21  21  21  21  21  11  21  21  21  21  21  21  21  11  21  21  21  11  21  21  21  21  11  21  21  21  21  21  21  21  11  21  21  21  21  21  21  21  21  11  11  11  21  21  21  21  21  11  21  21  21  21  21  11  11  11  11  21  21  21  21  21  21  21  11  21  21  21  21  21  21  11  21  21  21  11  21  21  21  21  21  21  21  21  21  21  11  21  11  21  21  11  11  21  21  11  21  21  21  11  21  21  21  21  21  11  11  21  21  21  21  21  21  11  21  21  21  21  11  21  21  21  11  21  21  21  21  21  21  21  21  21  21  21  21  11  21  21  21  21  21  21  21  21  21  11  11  11  11  21  21  21  21  21  11  21  11  21  21  21  21  11  21  21  21  21  21  21  11  21  21  11  21  21  21  21  11  21  11  11  11  21  21  11  21  11  21  21  21  21  21  21  21  21  21  11  21  21  21  21  21  21  21  21  21  21  11  11  21  21  21  21  21  21  21  21  21  21  21  21  21  21  21  21  21  21  21  21  21  21  21  21  21  21  21  21  21  21  21  21  21  21  11  21  21  21  21  11  21  21  11  11  11  21  21  21  21  21  21  11  21  21  21  21  21  21  21  21  21  11  21  11  21  11  21  21  21  11  21  21  21  21  21  11  21  21  21  21  21  21  21  11  21  21  21  21  21  21  21  21  21  21  21  21  21  11  21  21  21  11  21  11  21  21  21  21  21  11  11  21  11  21  21  21  21  21  21  21  21  21  21  21  21  21  21  21  21  21  21  21  21  21  11  21  21  21

  27  27  27  27  14  27  27  27  27  27  27  27  14  27  27  27  27  27  27  27  27  27  27  27  27  27  27  27  27  27  27  14  14  27  27  27  27  27  27  27  14  27  14  14  14  27  27  27  14  27  27  27  27  27  27  14  27  27  27  14  27  27  27  27  27  27  27  27  27  27  14  27  27  14  27  27  27  27  27  27  27  27  27  14  27  27  27  27  27  14  27  27  27  14  27  27  27  27  14  27  27  27  14  27  27  27  14  27  27  14  27  27  27  14  27  14  27  27  14  27  14  14  27  27  27  14  14  27  27  27  27  27  14  27  14  27  27  27  27  14  27  27  27  27  14  27  27  27  27  14  14  27  27  27  14  27  27  27  27  14  27  27  27  27  27  27  14  27  27  14  14  27  27  27  27  27  27  27  27  27  27  14  14  27  27  27  14  27  14  27  27  14  27  27  27  27  14  27  27  27  14  27  27  14  27  27  27  14  27  27  27  27  14  27  27  27  27  27  27  27  27  27  27  14  14  27  27  27  14  27  27  27  27  14  14  27  27  27  27  27  14  27  14  14  27  14  27  14  27  27  14  14  27  27  14  14  14  27  14  27  27  27  27  27  14  27  27  27  27  27  27  27  14  27  27  27  14  27  27  27  27  14  27  27  27  27  27  27  27  14  27  27  27  27  27  27  27  27  14  14  14  27  27  27  27  27  14  27  27  27  27  27  14  14  14  14  27  27  27  27  27  27  27  14  27  27  27  27  27  27  14  27  27  27  14  27  27  27  27  27  27  27  27  27  27  14  27  14  27  27  14  14  27  27  14  27  27  27  14  27  27  27  27  27  14  14  27  27  27  27  27  27  14  27  27  27  27  14  27  27  27  14  27  27  27  27  27  27  27  27  27  27  27  27  14  27  27  27  27  27  27  27  27  27  14  14  14  14  27  27  27  27  27  14  27  14  27  27  27  27  14  27  27  27  27  27  27  14  27  27  14  27  27  27  27  14  27  14  14  14  27  27  14  27  14  27  27  27  27  27  27  27  27  27  14  27  27  27  27  27  27  27  27  27  27  14  14  27  27  27  27  27  27  27  27  27  27  27  27  27  27  27  27  27  27  27  27  27  27  27  27  27  27  27  27  27  27  27  27  27  27  14  27  27  27  27  14  27  27  14  14  14  27  27  27  27  27  27  14  27  27  27  27  27  27  27  27  27  14  27  14  27  14  27  27  27  14  27  27  27  27  27  14  27  27  27  27  27  27  27  14  27  27  27  27  27  27  27  27  27  27  27  27  27  14  27  27  27  14  27  14  27  27  27  27  27  14  14  27  14  27  27  27  27  27  27  27  27  27  27  27  27  27  27  27  27  27  27  27  27  27  14  27  27  27

************************************************************************
